Welcome to the CBC MILP Solver 
Version: 2.10.7 
Build Date: Feb 14 2022 

command line - cbc inputs/new_no_tr/order/triang9_0_down_left_input.lp sec 1800 solve solu solutions/new_no_tr/triang9_0_down_left_input.lp (default strategy 1)
seconds was changed from 1e+100 to 1800
Continuous objective value is 244.261 - 3.29 seconds
Cgl0002I 201 variables fixed
Cgl0003I 0 fixed, 24 tightened bounds, 1708 strengthened rows, 0 substitutions
Cgl0003I 0 fixed, 26 tightened bounds, 827 strengthened rows, 0 substitutions
Cgl0003I 0 fixed, 26 tightened bounds, 466 strengthened rows, 0 substitutions
Cgl0003I 0 fixed, 13 tightened bounds, 134 strengthened rows, 0 substitutions
Cgl0003I 0 fixed, 15 tightened bounds, 57 strengthened rows, 0 substitutions
Cgl0003I 0 fixed, 9 tightened bounds, 44 strengthened rows, 0 substitutions
Cgl0003I 0 fixed, 6 tightened bounds, 27 strengthened rows, 0 substitutions
Cgl0003I 0 fixed, 9 tightened bounds, 21 strengthened rows, 0 substitutions
Cgl0003I 0 fixed, 5 tightened bounds, 29 strengthened rows, 0 substitutions
Cgl0004I processed model has 7792 rows, 2629 columns (2629 integer (2583 of which binary)) and 26808 elements
Cutoff increment increased from 1e-05 to 0.9999
Cbc0045I 1 integer variables out of 2629 objects (2629 integer) have cost of 1 - high priority
Cbc0045I branch on satisfied Y create fake objective Y random cost Y
Cbc0038I Initial state - 1318 integers unsatisfied sum - 391.44
Cbc0038I Pass   1: (8.20 seconds) suminf.   99.72117 (754) obj. 426.76 iterations 6114
Cbc0038I Pass   2: (8.79 seconds) suminf.   71.37531 (663) obj. 436.544 iterations 1809
Cbc0038I Pass   3: (8.98 seconds) suminf.   69.17066 (641) obj. 444.577 iterations 451
Cbc0038I Pass   4: (9.00 seconds) suminf.   69.04155 (643) obj. 446.444 iterations 36
Cbc0038I Pass   5: (9.25 seconds) suminf.   62.10385 (623) obj. 436.123 iterations 766
Cbc0038I Pass   6: (9.43 seconds) suminf.   58.73840 (636) obj. 436.146 iterations 517
Cbc0038I Pass   7: (9.48 seconds) suminf.   58.69171 (637) obj. 436.103 iterations 126
Cbc0038I Pass   8: (9.70 seconds) suminf.   55.56603 (610) obj. 424.516 iterations 594
Cbc0038I Pass   9: (9.76 seconds) suminf.   55.51575 (641) obj. 424.371 iterations 134
Cbc0038I Pass  10: (10.31 seconds) suminf.   53.45292 (627) obj. 424.308 iterations 1545
Cbc0038I Pass  11: (10.47 seconds) suminf.   50.49925 (612) obj. 424.792 iterations 355
Cbc0038I Pass  12: (10.53 seconds) suminf.   49.47521 (611) obj. 426.131 iterations 108
Cbc0038I Pass  13: (10.71 seconds) suminf.   49.89252 (576) obj. 434.505 iterations 478
Cbc0038I Pass  14: (10.89 seconds) suminf.   47.60733 (580) obj. 430.805 iterations 444
Cbc0038I Pass  15: (11.29 seconds) suminf.   46.96378 (552) obj. 434.997 iterations 1129
Cbc0038I Pass  16: (11.42 seconds) suminf.   45.81713 (553) obj. 435.015 iterations 283
Cbc0038I Pass  17: (11.66 seconds) suminf.   39.75182 (512) obj. 425.344 iterations 712
Cbc0038I Pass  18: (11.75 seconds) suminf.   39.20154 (524) obj. 424.405 iterations 216
Cbc0038I Pass  19: (11.84 seconds) suminf.   38.42675 (514) obj. 424.057 iterations 217
Cbc0038I Pass  20: (12.24 seconds) suminf.   39.13768 (510) obj. 423.226 iterations 1226
Cbc0038I Pass  21: (12.41 seconds) suminf.   37.83889 (513) obj. 425.342 iterations 465
Cbc0038I Pass  22: (12.66 seconds) suminf.   39.64537 (505) obj. 423.683 iterations 766
Cbc0038I Pass  23: (12.81 seconds) suminf.   37.30992 (519) obj. 427.202 iterations 389
Cbc0038I Pass  24: (12.89 seconds) suminf.   36.88892 (522) obj. 426.367 iterations 174
Cbc0038I Pass  25: (13.20 seconds) suminf.   42.95090 (503) obj. 435.442 iterations 871
Cbc0038I Pass  26: (13.38 seconds) suminf.   38.89335 (523) obj. 433.877 iterations 510
Cbc0038I Pass  27: (13.74 seconds) suminf.   35.22686 (477) obj. 447.399 iterations 1091
Cbc0038I Pass  28: (13.91 seconds) suminf.   33.97974 (481) obj. 447.39 iterations 432
Cbc0038I Pass  29: (14.21 seconds) suminf.   35.18408 (499) obj. 447.383 iterations 867
Cbc0038I Pass  30: (14.27 seconds) suminf.   35.72464 (497) obj. 447.381 iterations 150
Cbc0038I Pass  31: (15.05 seconds) suminf.   37.10750 (456) obj. 446.144 iterations 2223
Cbc0038I Pass  32: (15.18 seconds) suminf.   35.82375 (456) obj. 446.145 iterations 433
Cbc0038I Pass  33: (15.36 seconds) suminf.   40.10364 (446) obj. 446.175 iterations 607
Cbc0038I Pass  34: (15.56 seconds) suminf.   37.60505 (450) obj. 446.192 iterations 756
Cbc0038I Pass  35: (15.60 seconds) suminf.   35.70545 (447) obj. 446.219 iterations 80
Cbc0038I Pass  36: (15.61 seconds) suminf.   35.77853 (443) obj. 446.218 iterations 8
Cbc0038I Pass  37: (15.85 seconds) suminf.   35.13350 (439) obj. 458.792 iterations 840
Cbc0038I Pass  38: (16.00 seconds) suminf.   34.47124 (424) obj. 459.854 iterations 553
Cbc0038I Pass  39: (16.27 seconds) suminf.   31.46932 (412) obj. 518.44 iterations 1042
Cbc0038I Pass  40: (16.36 seconds) suminf.   31.00296 (416) obj. 518.44 iterations 297
Cbc0038I Pass  41: (16.59 seconds) suminf.   31.18634 (419) obj. 518.44 iterations 893
Cbc0038I Pass  42: (16.71 seconds) suminf.   30.23962 (420) obj. 518.44 iterations 368
Cbc0038I Pass  43: (16.92 seconds) suminf.   32.16900 (435) obj. 518.44 iterations 770
Cbc0038I Pass  44: (17.01 seconds) suminf.   29.96831 (395) obj. 518.44 iterations 298
Cbc0038I Pass  45: (17.19 seconds) suminf.   28.38917 (365) obj. 518.438 iterations 658
Cbc0038I Pass  46: (17.24 seconds) suminf.   27.55548 (366) obj. 518.44 iterations 126
Cbc0038I Pass  47: (17.33 seconds) suminf.   29.07599 (343) obj. 518.44 iterations 287
Cbc0038I Pass  48: (17.41 seconds) suminf.   26.58619 (350) obj. 518.44 iterations 268
Cbc0038I Pass  49: (17.44 seconds) suminf.   26.06198 (352) obj. 518.44 iterations 53
Cbc0038I Pass  50: (17.60 seconds) suminf.   25.64706 (279) obj. 518.44 iterations 615
Cbc0038I Pass  51: (17.62 seconds) suminf.   25.62125 (278) obj. 518.44 iterations 54
Cbc0038I Pass  52: (17.71 seconds) suminf.   27.40114 (263) obj. 518.44 iterations 345
Cbc0038I Pass  53: (17.74 seconds) suminf.   26.01563 (264) obj. 518.44 iterations 95
Cbc0038I Pass  54: (17.82 seconds) suminf.   25.87267 (269) obj. 518.44 iterations 314
Cbc0038I Pass  55: (17.85 seconds) suminf.   24.94393 (269) obj. 518.44 iterations 79
Cbc0038I Pass  56: (17.98 seconds) suminf.   20.88163 (238) obj. 518.44 iterations 549
Cbc0038I Pass  57: (18.02 seconds) suminf.   20.31211 (240) obj. 518.44 iterations 151
Cbc0038I Pass  58: (18.08 seconds) suminf.   16.41841 (221) obj. 518.44 iterations 230
Cbc0038I Pass  59: (18.10 seconds) suminf.   16.26272 (222) obj. 518.44 iterations 68
Cbc0038I Pass  60: (18.15 seconds) suminf.   14.80360 (211) obj. 547.505 iterations 241
Cbc0038I Pass  61: (18.17 seconds) suminf.   13.46005 (212) obj. 548.595 iterations 57
Cbc0038I Pass  62: (18.26 seconds) suminf.    8.70416 (192) obj. 556.416 iterations 361
Cbc0038I Pass  63: (18.28 seconds) suminf.    8.26191 (199) obj. 556.264 iterations 90
Cbc0038I Pass  64: (18.35 seconds) suminf.    7.42921 (168) obj. 553.801 iterations 302
Cbc0038I Pass  65: (18.37 seconds) suminf.    6.68449 (161) obj. 554.923 iterations 113
Cbc0038I Pass  66: (18.45 seconds) suminf.    4.33917 (166) obj. 519.137 iterations 351
Cbc0038I Pass  67: (18.46 seconds) suminf.    4.14135 (166) obj. 519.137 iterations 27
Cbc0038I Pass  68: (18.50 seconds) suminf.    4.67620 (166) obj. 519.137 iterations 165
Cbc0038I Pass  69: (18.51 seconds) suminf.    4.48763 (165) obj. 519.137 iterations 8
Cbc0038I Pass  70: (18.54 seconds) suminf.    1.74424 (120) obj. 519.137 iterations 110
Cbc0038I Pass  71: (18.55 seconds) suminf.    1.74424 (120) obj. 519.137 iterations 11
Cbc0038I Pass  72: (18.57 seconds) suminf.    1.94326 (112) obj. 519.137 iterations 89
Cbc0038I Pass  73: (18.59 seconds) suminf.    1.94326 (112) obj. 519.137 iterations 23
Cbc0038I Pass  74: (19.48 seconds) suminf.    0.00000 (0) obj. 548 iterations 2738
Cbc0038I Solution found of 548
Cbc0038I Cleaned solution of 548
Cbc0038I Before mini branch and bound, 855 integers at bound fixed and 0 continuous
Cbc0038I Full problem 7792 rows 2629 columns, reduced to 5899 rows 1774 columns - 253 fixed gives 3066, 910 - ok now
Cbc0038I Mini branch and bound did not improve solution (23.09 seconds)
Cbc0038I Round again with cutoff of 516.774
Cbc0038I Pass  75: (23.10 seconds) suminf.   99.72117 (754) obj. 426.76 iterations 0
Cbc0038I Pass  76: (23.60 seconds) suminf.   71.37531 (663) obj. 436.544 iterations 1753
Cbc0038I Pass  77: (23.77 seconds) suminf.   69.17066 (641) obj. 444.577 iterations 453
Cbc0038I Pass  78: (23.79 seconds) suminf.   69.04155 (643) obj. 446.444 iterations 35
Cbc0038I Pass  79: (24.02 seconds) suminf.   62.10385 (623) obj. 436.123 iterations 802
Cbc0038I Pass  80: (24.17 seconds) suminf.   58.73840 (636) obj. 436.146 iterations 426
Cbc0038I Pass  81: (24.21 seconds) suminf.   58.69171 (637) obj. 436.103 iterations 109
Cbc0038I Pass  82: (24.57 seconds) suminf.   53.07254 (650) obj. 427.433 iterations 1172
Cbc0038I Pass  83: (24.82 seconds) suminf.   48.69229 (630) obj. 431.911 iterations 695
Cbc0038I Pass  84: (24.91 seconds) suminf.   48.49959 (610) obj. 432.821 iterations 193
Cbc0038I Pass  85: (24.99 seconds) suminf.   46.80506 (637) obj. 431.79 iterations 191
Cbc0038I Pass  86: (25.01 seconds) suminf.   46.65576 (636) obj. 432.019 iterations 46
Cbc0038I Pass  87: (25.23 seconds) suminf.   48.61694 (597) obj. 434.883 iterations 688
Cbc0038I Pass  88: (25.38 seconds) suminf.   46.22475 (597) obj. 438.501 iterations 439
Cbc0038I Pass  89: (25.77 seconds) suminf.   47.57033 (571) obj. 445.24 iterations 1226
Cbc0038I Pass  90: (25.93 seconds) suminf.   45.99477 (594) obj. 447.269 iterations 457
Cbc0038I Pass  91: (26.15 seconds) suminf.   49.16756 (555) obj. 447.487 iterations 634
Cbc0038I Pass  92: (26.21 seconds) suminf.   48.41226 (544) obj. 447.36 iterations 145
Cbc0038I Pass  93: (26.42 seconds) suminf.   46.44738 (572) obj. 458.141 iterations 704
Cbc0038I Pass  94: (26.44 seconds) suminf.   46.49477 (565) obj. 458.182 iterations 34
Cbc0038I Pass  95: (26.77 seconds) suminf.   45.97349 (529) obj. 445.072 iterations 1136
Cbc0038I Pass  96: (26.84 seconds) suminf.   45.00160 (524) obj. 444.806 iterations 223
Cbc0038I Pass  97: (27.19 seconds) suminf.   42.66711 (531) obj. 437.966 iterations 1136
Cbc0038I Pass  98: (27.31 seconds) suminf.   41.94490 (539) obj. 444.582 iterations 296
Cbc0038I Pass  99: (27.56 seconds) suminf.   40.48965 (523) obj. 443.886 iterations 827
Cbc0038I Pass 100: (27.69 seconds) suminf.   42.02861 (564) obj. 447.721 iterations 331
Cbc0038I Pass 101: (27.98 seconds) suminf.   37.49105 (496) obj. 493.383 iterations 911
Cbc0038I Pass 102: (28.08 seconds) suminf.   37.29372 (493) obj. 490.648 iterations 254
Cbc0038I Pass 103: (28.45 seconds) suminf.   35.01104 (489) obj. 487.838 iterations 1182
Cbc0038I Pass 104: (28.54 seconds) suminf.   34.96903 (481) obj. 489.287 iterations 242
Cbc0038I Pass 105: (28.81 seconds) suminf.   33.69345 (468) obj. 493.947 iterations 983
Cbc0038I Pass 106: (28.92 seconds) suminf.   33.33680 (479) obj. 496.839 iterations 320
Cbc0038I Pass 107: (29.08 seconds) suminf.   32.12921 (472) obj. 491.303 iterations 456
Cbc0038I Pass 108: (29.23 seconds) suminf.   32.71630 (481) obj. 487.439 iterations 395
Cbc0038I Pass 109: (29.50 seconds) suminf.   39.73459 (472) obj. 505.137 iterations 866
Cbc0038I Pass 110: (29.71 seconds) suminf.   34.68869 (473) obj. 510.643 iterations 638
Cbc0038I Pass 111: (29.74 seconds) suminf.   34.58644 (475) obj. 510.752 iterations 73
Cbc0038I Pass 112: (29.95 seconds) suminf.   34.00159 (482) obj. 497.57 iterations 687
Cbc0038I Pass 113: (30.15 seconds) suminf.   34.36520 (476) obj. 495.586 iterations 585
Cbc0038I Pass 114: (30.29 seconds) suminf.   32.10210 (484) obj. 499.248 iterations 424
Cbc0038I Pass 115: (30.41 seconds) suminf.   32.42494 (471) obj. 499.258 iterations 329
Cbc0038I Pass 116: (30.76 seconds) suminf.   33.77767 (445) obj. 500.806 iterations 1244
Cbc0038I Pass 117: (30.87 seconds) suminf.   32.67030 (450) obj. 500.825 iterations 301
Cbc0038I Pass 118: (31.19 seconds) suminf.   30.96019 (428) obj. 493 iterations 1038
Cbc0038I Pass 119: (31.22 seconds) suminf.   30.48475 (429) obj. 493 iterations 78
Cbc0038I Pass 120: (31.50 seconds) suminf.   34.05488 (416) obj. 493 iterations 1034
Cbc0038I Pass 121: (31.66 seconds) suminf.   29.30305 (444) obj. 493 iterations 555
Cbc0038I Pass 122: (31.72 seconds) suminf.   29.26575 (428) obj. 493 iterations 200
Cbc0038I Pass 123: (31.97 seconds) suminf.   29.34106 (431) obj. 516.774 iterations 833
Cbc0038I Pass 124: (32.14 seconds) suminf.   28.14352 (428) obj. 516.774 iterations 565
Cbc0038I Pass 125: (32.21 seconds) suminf.   27.22471 (421) obj. 516.774 iterations 207
Cbc0038I Pass 126: (32.37 seconds) suminf.   33.31976 (408) obj. 516.774 iterations 536
Cbc0038I Pass 127: (32.42 seconds) suminf.   31.09488 (422) obj. 516.774 iterations 165
Cbc0038I Pass 128: (32.58 seconds) suminf.   32.67258 (419) obj. 516.774 iterations 564
Cbc0038I Pass 129: (32.83 seconds) suminf.   28.76628 (443) obj. 516.774 iterations 839
Cbc0038I Pass 130: (32.84 seconds) suminf.   28.76628 (443) obj. 516.774 iterations 10
Cbc0038I Pass 131: (33.08 seconds) suminf.   28.07582 (399) obj. 516.774 iterations 888
Cbc0038I Pass 132: (33.14 seconds) suminf.   27.08772 (393) obj. 516.774 iterations 217
Cbc0038I Pass 133: (33.35 seconds) suminf.   34.46782 (386) obj. 516.774 iterations 736
Cbc0038I Pass 134: (33.48 seconds) suminf.   28.48291 (389) obj. 516.774 iterations 448
Cbc0038I Pass 135: (33.51 seconds) suminf.   28.06888 (375) obj. 516.774 iterations 79
Cbc0038I Pass 136: (33.70 seconds) suminf.   28.27958 (327) obj. 516.774 iterations 653
Cbc0038I Pass 137: (33.76 seconds) suminf.   28.14361 (340) obj. 516.774 iterations 186
Cbc0038I Pass 138: (33.87 seconds) suminf.   22.56132 (325) obj. 516.774 iterations 418
Cbc0038I Pass 139: (33.90 seconds) suminf.   22.53444 (331) obj. 516.774 iterations 83
Cbc0038I Pass 140: (34.00 seconds) suminf.   21.53624 (290) obj. 516.774 iterations 303
Cbc0038I Pass 141: (34.06 seconds) suminf.   20.84125 (289) obj. 516.774 iterations 247
Cbc0038I Pass 142: (34.20 seconds) suminf.   16.23961 (232) obj. 516.774 iterations 484
Cbc0038I Pass 143: (34.23 seconds) suminf.   15.90161 (229) obj. 516.774 iterations 134
Cbc0038I Pass 144: (34.32 seconds) suminf.   14.11252 (233) obj. 516.774 iterations 308
Cbc0038I Pass 145: (34.37 seconds) suminf.   12.04013 (225) obj. 516.774 iterations 177
Cbc0038I Pass 146: (34.41 seconds) suminf.   11.39320 (218) obj. 516.774 iterations 154
Cbc0038I Pass 147: (34.45 seconds) suminf.    9.90712 (206) obj. 516.774 iterations 95
Cbc0038I Pass 148: (34.53 seconds) suminf.    8.38505 (205) obj. 516.774 iterations 291
Cbc0038I Pass 149: (34.55 seconds) suminf.    7.96999 (203) obj. 516.774 iterations 51
Cbc0038I Pass 150: (34.58 seconds) suminf.    6.42394 (180) obj. 516.774 iterations 134
Cbc0038I Pass 151: (34.60 seconds) suminf.    6.42394 (180) obj. 516.774 iterations 11
Cbc0038I Pass 152: (34.68 seconds) suminf.    4.85121 (160) obj. 516.774 iterations 336
Cbc0038I Pass 153: (34.96 seconds) suminf.    3.24357 (157) obj. 516.774 iterations 981
Cbc0038I Pass 154: (34.97 seconds) suminf.    3.24357 (157) obj. 516.774 iterations 7
Cbc0038I Pass 155: (35.09 seconds) suminf.    4.60511 (137) obj. 516.774 iterations 495
Cbc0038I Pass 156: (35.10 seconds) suminf.    4.60511 (137) obj. 516.774 iterations 2
Cbc0038I Pass 157: (35.25 seconds) suminf.    4.50906 (94) obj. 516.774 iterations 476
Cbc0038I Pass 158: (35.26 seconds) suminf.    4.50906 (94) obj. 516.774 iterations 1
Cbc0038I Pass 159: (35.29 seconds) suminf.    0.57355 (23) obj. 516.774 iterations 93
Cbc0038I Pass 160: (35.30 seconds) suminf.    0.57355 (23) obj. 516.774 iterations 10
Cbc0038I Pass 161: (35.73 seconds) suminf.    2.24464 (35) obj. 516.774 iterations 1567
Cbc0038I Pass 162: (36.18 seconds) suminf.    3.46059 (38) obj. 516.774 iterations 1684
Cbc0038I Pass 163: (36.19 seconds) suminf.    3.27727 (39) obj. 516.774 iterations 2
Cbc0038I Pass 164: (36.95 seconds) suminf.    1.89944 (45) obj. 516.774 iterations 2319
Cbc0038I Pass 165: (36.96 seconds) suminf.    1.86119 (53) obj. 516.774 iterations 10
Cbc0038I Pass 166: (37.03 seconds) suminf.    4.02351 (86) obj. 516.774 iterations 254
Cbc0038I Pass 167: (37.37 seconds) suminf.    5.13060 (59) obj. 516.774 iterations 1011
Cbc0038I Pass 168: (37.39 seconds) suminf.    1.94171 (49) obj. 516.774 iterations 55
Cbc0038I Pass 169: (37.40 seconds) suminf.    1.94171 (49) obj. 516.774 iterations 4
Cbc0038I Pass 170: (37.53 seconds) suminf.    3.32180 (88) obj. 516.774 iterations 332
Cbc0038I Pass 171: (37.56 seconds) suminf.    6.39788 (82) obj. 516.774 iterations 149
Cbc0038I Pass 172: (37.59 seconds) suminf.    3.04481 (70) obj. 516.774 iterations 72
Cbc0038I Pass 173: (37.62 seconds) suminf.    2.81917 (7) obj. 516.774 iterations 107
Cbc0038I Pass 174: (38.25 seconds) suminf.  103.17013 (456) obj. 516.774 iterations 2378
Cbc0038I Rounding solution of 516 is better than previous of 548

Cbc0038I Before mini branch and bound, 708 integers at bound fixed and 0 continuous
Cbc0038I Mini branch and bound did not improve solution (38.27 seconds)
Cbc0038I Round again with cutoff of 460.949
Cbc0038I Pass 174: (38.28 seconds) suminf.   99.72117 (754) obj. 426.76 iterations 0
Cbc0038I Pass 175: (38.77 seconds) suminf.   71.37531 (663) obj. 436.544 iterations 1753
Cbc0038I Pass 176: (38.93 seconds) suminf.   69.17066 (641) obj. 444.577 iterations 453
Cbc0038I Pass 177: (38.95 seconds) suminf.   69.04155 (643) obj. 446.444 iterations 35
Cbc0038I Pass 178: (39.19 seconds) suminf.   59.16372 (606) obj. 434.535 iterations 771
Cbc0038I Pass 179: (39.41 seconds) suminf.   55.74266 (628) obj. 434.351 iterations 687
Cbc0038I Pass 180: (39.55 seconds) suminf.   56.26081 (641) obj. 434.618 iterations 407
Cbc0038I Pass 181: (39.64 seconds) suminf.   55.73481 (627) obj. 434.578 iterations 234
Cbc0038I Pass 182: (39.87 seconds) suminf.   55.26368 (620) obj. 434.949 iterations 797
Cbc0038I Pass 183: (40.00 seconds) suminf.   55.31814 (584) obj. 424.346 iterations 372
Cbc0038I Pass 184: (40.40 seconds) suminf.   51.47017 (607) obj. 429.928 iterations 1434
Cbc0038I Pass 185: (40.61 seconds) suminf.   48.97954 (624) obj. 433.478 iterations 626
Cbc0038I Pass 186: (40.64 seconds) suminf.   48.85620 (624) obj. 433.385 iterations 85
Cbc0038I Pass 187: (40.80 seconds) suminf.   50.30838 (597) obj. 434.84 iterations 466
Cbc0038I Pass 188: (40.86 seconds) suminf.   49.21571 (593) obj. 434.847 iterations 157
Cbc0038I Pass 189: (40.92 seconds) suminf.   49.21446 (582) obj. 434.854 iterations 143
Cbc0038I Pass 190: (40.96 seconds) suminf.   48.79569 (577) obj. 434.848 iterations 121
Cbc0038I Pass 191: (41.32 seconds) suminf.   49.58557 (623) obj. 434.655 iterations 1222
Cbc0038I Pass 192: (41.47 seconds) suminf.   46.42495 (574) obj. 434.888 iterations 509
Cbc0038I Pass 193: (41.56 seconds) suminf.   46.57591 (609) obj. 434.875 iterations 237
Cbc0038I Pass 194: (41.78 seconds) suminf.   49.11788 (627) obj. 434.65 iterations 708
Cbc0038I Pass 195: (41.86 seconds) suminf.   48.63792 (605) obj. 434.691 iterations 189
Cbc0038I Pass 196: (41.92 seconds) suminf.   48.44949 (610) obj. 434.692 iterations 149
Cbc0038I Pass 197: (42.07 seconds) suminf.   49.32221 (614) obj. 434.706 iterations 386
Cbc0038I Pass 198: (42.30 seconds) suminf.   46.69986 (568) obj. 437.746 iterations 690
Cbc0038I Pass 199: (42.46 seconds) suminf.   46.54063 (588) obj. 432.974 iterations 426
Cbc0038I Pass 200: (42.72 seconds) suminf.   45.36452 (554) obj. 421.643 iterations 851
Cbc0038I Pass 201: (42.88 seconds) suminf.   44.53832 (559) obj. 427.336 iterations 555
Cbc0038I Pass 202: (43.13 seconds) suminf.   40.58559 (503) obj. 435.739 iterations 802
Cbc0038I Pass 203: (43.14 seconds) suminf.   40.58559 (503) obj. 435.739 iterations 4
Cbc0038I Pass 204: (43.52 seconds) suminf.   45.95295 (547) obj. 440.652 iterations 1256
Cbc0038I Pass 205: (43.73 seconds) suminf.   41.09747 (543) obj. 447.463 iterations 663
Cbc0038I Pass 206: (43.79 seconds) suminf.   40.11627 (530) obj. 447.563 iterations 127
Cbc0038I Pass 207: (43.89 seconds) suminf.   41.51411 (525) obj. 447.733 iterations 263
Cbc0038I Pass 208: (44.19 seconds) suminf.   44.98302 (491) obj. 460.949 iterations 962
Cbc0038I Pass 209: (44.31 seconds) suminf.   41.91881 (503) obj. 460.949 iterations 268
Cbc0038I Pass 210: (44.32 seconds) suminf.   42.02837 (503) obj. 460.949 iterations 9
Cbc0038I Pass 211: (44.52 seconds) suminf.   40.33232 (506) obj. 460.949 iterations 620
Cbc0038I Pass 212: (44.55 seconds) suminf.   40.26317 (510) obj. 460.949 iterations 41
Cbc0038I Pass 213: (44.83 seconds) suminf.   39.64785 (479) obj. 460.949 iterations 933
Cbc0038I Pass 214: (44.97 seconds) suminf.   39.07567 (485) obj. 460.949 iterations 430
Cbc0038I Pass 215: (45.40 seconds) suminf.   36.88414 (490) obj. 460.949 iterations 1401
Cbc0038I Pass 216: (45.52 seconds) suminf.   36.31852 (471) obj. 460.949 iterations 302
Cbc0038I Pass 217: (45.54 seconds) suminf.   36.36880 (471) obj. 460.949 iterations 24
Cbc0038I Pass 218: (45.73 seconds) suminf.   36.29768 (419) obj. 460.949 iterations 635
Cbc0038I Pass 219: (45.77 seconds) suminf.   34.81825 (416) obj. 460.949 iterations 146
Cbc0038I Pass 220: (45.89 seconds) suminf.   33.56669 (386) obj. 460.949 iterations 374
Cbc0038I Pass 221: (45.90 seconds) suminf.   33.56669 (386) obj. 460.949 iterations 0
Cbc0038I Pass 222: (46.03 seconds) suminf.   30.32559 (344) obj. 460.949 iterations 421
Cbc0038I Pass 223: (46.05 seconds) suminf.   29.96423 (346) obj. 460.949 iterations 54
Cbc0038I Pass 224: (46.15 seconds) suminf.   30.03372 (334) obj. 460.949 iterations 325
Cbc0038I Pass 225: (46.19 seconds) suminf.   30.70255 (343) obj. 460.949 iterations 105
Cbc0038I Pass 226: (46.35 seconds) suminf.   26.43213 (301) obj. 460.949 iterations 589
Cbc0038I Pass 227: (46.40 seconds) suminf.   24.71833 (299) obj. 460.949 iterations 188
Cbc0038I Pass 228: (46.51 seconds) suminf.   24.30154 (288) obj. 460.949 iterations 370
Cbc0038I Pass 229: (46.55 seconds) suminf.   23.50264 (287) obj. 460.949 iterations 110
Cbc0038I Pass 230: (46.86 seconds) suminf.   16.35664 (227) obj. 460.949 iterations 1157
Cbc0038I Pass 231: (46.88 seconds) suminf.   16.32687 (224) obj. 460.949 iterations 54
Cbc0038I Pass 232: (46.91 seconds) suminf.   12.97134 (208) obj. 460.949 iterations 113
Cbc0038I Pass 233: (46.93 seconds) suminf.   12.96870 (207) obj. 460.949 iterations 18
Cbc0038I Pass 234: (47.03 seconds) suminf.   14.17627 (205) obj. 460.949 iterations 337
Cbc0038I Pass 235: (47.07 seconds) suminf.   10.99159 (199) obj. 460.949 iterations 127
Cbc0038I Pass 236: (47.12 seconds) suminf.   10.46715 (198) obj. 460.949 iterations 193
Cbc0038I Pass 237: (47.25 seconds) suminf.   14.47669 (176) obj. 460.949 iterations 529
Cbc0038I Pass 238: (47.26 seconds) suminf.   14.47669 (176) obj. 460.949 iterations 7
Cbc0038I Pass 239: (47.37 seconds) suminf.    9.50733 (148) obj. 460.949 iterations 455
Cbc0038I Pass 240: (47.39 seconds) suminf.    7.93257 (141) obj. 460.949 iterations 22
Cbc0038I Pass 241: (47.47 seconds) suminf.    5.88135 (162) obj. 460.949 iterations 250
Cbc0038I Pass 242: (47.51 seconds) suminf.    5.65936 (134) obj. 460.949 iterations 135
Cbc0038I Pass 243: (47.58 seconds) suminf.    6.24015 (154) obj. 460.949 iterations 245
Cbc0038I Pass 244: (47.69 seconds) suminf.   11.00575 (160) obj. 460.949 iterations 447
Cbc0038I Pass 245: (47.71 seconds) suminf.    9.42433 (157) obj. 460.949 iterations 22
Cbc0038I Pass 246: (47.80 seconds) suminf.    5.70411 (112) obj. 460.949 iterations 374
Cbc0038I Pass 247: (47.84 seconds) suminf.    5.11020 (118) obj. 460.949 iterations 127
Cbc0038I Pass 248: (48.00 seconds) suminf.    9.80821 (140) obj. 460.949 iterations 598
Cbc0038I Pass 249: (48.12 seconds) suminf.    7.28894 (147) obj. 460.949 iterations 436
Cbc0038I Pass 250: (48.16 seconds) suminf.    6.53060 (150) obj. 460.949 iterations 126
Cbc0038I Pass 251: (48.65 seconds) suminf.    4.91976 (95) obj. 460.949 iterations 1623
Cbc0038I Pass 252: (48.75 seconds) suminf.    3.56798 (103) obj. 460.949 iterations 366
Cbc0038I Pass 253: (48.76 seconds) suminf.    3.56798 (103) obj. 460.949 iterations 6
Cbc0038I Pass 254: (48.93 seconds) suminf.    4.65763 (118) obj. 460.949 iterations 479
Cbc0038I Pass 255: (49.10 seconds) suminf.    3.70595 (109) obj. 460.949 iterations 484
Cbc0038I Pass 256: (49.50 seconds) suminf.   11.02835 (163) obj. 460.949 iterations 1499
Cbc0038I Pass 257: (49.51 seconds) suminf.   10.34349 (154) obj. 460.949 iterations 10
Cbc0038I Pass 258: (49.73 seconds) suminf.    3.85207 (105) obj. 460.949 iterations 765
Cbc0038I Pass 259: (49.76 seconds) suminf.    3.38457 (88) obj. 460.949 iterations 110
Cbc0038I Pass 260: (50.13 seconds) suminf.    6.46970 (67) obj. 460.949 iterations 974
Cbc0038I Pass 261: (50.14 seconds) suminf.    6.46970 (67) obj. 460.949 iterations 4
Cbc0038I Pass 262: (50.22 seconds) suminf.    4.14997 (70) obj. 460.949 iterations 260
Cbc0038I Pass 263: (50.25 seconds) suminf.    1.36071 (55) obj. 460.949 iterations 122
Cbc0038I Pass 264: (50.39 seconds) suminf.    7.02299 (89) obj. 460.949 iterations 470
Cbc0038I Pass 265: (50.41 seconds) suminf.    3.68220 (83) obj. 460.949 iterations 28
Cbc0038I Pass 266: (50.53 seconds) suminf.    2.56153 (67) obj. 460.949 iterations 310
Cbc0038I Pass 267: (50.71 seconds) suminf.    0.97765 (31) obj. 460.949 iterations 522
Cbc0038I Pass 268: (51.00 seconds) suminf.    2.22881 (70) obj. 460.949 iterations 839
Cbc0038I Pass 269: (51.01 seconds) suminf.    2.22881 (70) obj. 460.949 iterations 3
Cbc0038I Pass 270: (51.17 seconds) suminf.    7.13752 (101) obj. 460.949 iterations 554
Cbc0038I Pass 271: (51.28 seconds) suminf.    4.35873 (67) obj. 460.949 iterations 317
Cbc0038I Pass 272: (51.42 seconds) suminf.    7.81343 (93) obj. 460.949 iterations 465
Cbc0038I Pass 273: (52.00 seconds) suminf.   82.60893 (460) obj. 460.949 iterations 2293
Cbc0038I No solution found this major pass
Cbc0038I Before mini branch and bound, 720 integers at bound fixed and 0 continuous
Cbc0038I Mini branch and bound did not improve solution (52.01 seconds)
Cbc0038I After 52.01 seconds - Feasibility pump exiting with objective of 516 - took 46.40 seconds
Cbc0012I Integer solution of 516 found by feasibility pump after 0 iterations and 0 nodes (52.01 seconds)
Cbc0038I Full problem 7792 rows 2629 columns, reduced to 5089 rows 1404 columns - 746 fixed gives 461, 86 - ok now
Cbc0038I Full problem 7792 rows 2629 columns, reduced to 42 rows 16 columns
Cbc0012I Integer solution of 500 found by RINS after 0 iterations and 0 nodes (57.07 seconds)
Cbc0031I 84 added rows had average density of 9.4166667
Cbc0013I At root node, 84 cuts changed objective from 244.74309 to 300 in 10 passes
Cbc0014I Cut generator 0 (Probing) - 65 row cuts average 4.6 elements, 4 column cuts (4 active)  in 0.255 seconds - new frequency is 1
Cbc0014I Cut generator 1 (Gomory) - 129 row cuts average 24.9 elements, 0 column cuts (0 active)  in 1.976 seconds - new frequency is 1
Cbc0014I Cut generator 2 (Knapsack) - 3 row cuts average 7.3 elements, 0 column cuts (0 active)  in 0.034 seconds - new frequency is 1
Cbc0014I Cut generator 3 (Clique) - 0 row cuts average 0.0 elements, 0 column cuts (0 active)  in 0.062 seconds - new frequency is -100
Cbc0014I Cut generator 4 (MixedIntegerRounding2) - 1 row cuts average 4.0 elements, 0 column cuts (0 active)  in 0.036 seconds - new frequency is -100
Cbc0014I Cut generator 5 (FlowCover) - 0 row cuts average 0.0 elements, 0 column cuts (0 active)  in 0.023 seconds - new frequency is -100
Cbc0014I Cut generator 6 (TwoMirCuts) - 213 row cuts average 10.9 elements, 0 column cuts (0 active)  in 0.789 seconds - new frequency is 1
Cbc0014I Cut generator 7 (ZeroHalf) - 23 row cuts average 62.3 elements, 0 column cuts (0 active)  in 1.543 seconds - new frequency is 1
Cbc0010I After 0 nodes, 1 on tree, 500 best solution, best possible 300 (98.80 seconds)
Cbc0038I Full problem 7792 rows 2629 columns, reduced to 4544 rows 1251 columns - 656 fixed gives 335, 69 - ok now
Cbc0038I Full problem 7792 rows 2629 columns, reduced to 42 rows 16 columns
Cbc0012I Integer solution of 493 found by RINS after 556549 iterations and 43 nodes (486.84 seconds)
Cbc0038I Full problem 7792 rows 2629 columns, reduced to 4675 rows 1288 columns - 679 fixed gives 222, 57 - ok now
Cbc0010I After 100 nodes, 5 on tree, 493 best solution, best possible 306 (707.55 seconds)
Cbc0038I Full problem 7792 rows 2629 columns, reduced to 4003 rows 1128 columns - 535 fixed gives 327, 72 - ok now
Cbc0010I After 200 nodes, 20 on tree, 493 best solution, best possible 306 (994.10 seconds)
Cbc0010I After 300 nodes, 15 on tree, 493 best solution, best possible 306 (1304.74 seconds)
Cbc0038I Full problem 7792 rows 2629 columns, reduced to 4867 rows 1333 columns - 725 fixed gives 413, 82 - ok now
Cbc0020I Exiting on maximum time
Cbc0005I Partial search - best objective 493 (best possible 306), took 2029688 iterations and 400 nodes (1800.92 seconds)
Cbc0032I Strong branching done 4240 times (380188 iterations), fathomed 15 nodes and fixed 374 variables
Cbc0035I Maximum depth 61, 0 variables fixed on reduced cost
Cuts at root node changed objective from 244.743 to 300
Probing was tried 272 times and created 3553 cuts of which 0 were active after adding rounds of cuts (3.232 seconds)
Gomory was tried 262 times and created 691 cuts of which 0 were active after adding rounds of cuts (7.689 seconds)
Knapsack was tried 262 times and created 289 cuts of which 0 were active after adding rounds of cuts (0.645 seconds)
Clique was tried 10 times and created 0 cuts of which 0 were active after adding rounds of cuts (0.062 seconds)
MixedIntegerRounding2 was tried 10 times and created 1 cuts of which 0 were active after adding rounds of cuts (0.036 seconds)
FlowCover was tried 10 times and created 0 cuts of which 0 were active after adding rounds of cuts (0.023 seconds)
TwoMirCuts was tried 262 times and created 3043 cuts of which 0 were active after adding rounds of cuts (2.862 seconds)
ZeroHalf was tried 262 times and created 836 cuts of which 0 were active after adding rounds of cuts (38.926 seconds)

Result - Stopped on time limit

Objective value:                493.00000000
Lower bound:                    306.000
Gap:                            0.61
Enumerated nodes:               400
Total iterations:               2029688
Time (CPU seconds):             1801.80
Time (Wallclock seconds):       1802.76

Total time (CPU seconds):       1801.82   (Wallclock seconds):       1802.79

